data;
param n := 10;
param m := 5;

param t [1,1] 21 [1,2] 2 [1,3] 26 [1,4] 11 [1,5] 8 [2,1] 12 [2,2] 4 [2,3] 23 [2,4] 3 [2,5] 24 [3,1] 15 [3,2] 27 [3,3] 29 [3,4] 2 [3,5] 18 [4,1] 26 [4,2] 14 [4,3] 24 [4,4] 22 [4,5] 16 [5,1] 30 [5,2] 11 [5,3] 26 [5,4] 11 [5,5] 12 [6,1] 15 [6,2] 11 [6,3] 6 [6,4] 2 [6,5] 27 [7,1] 16 [7,2] 21 [7,3] 10 [7,4] 29 [7,5] 30 [8,1] 5 [8,2] 29 [8,3] 12 [8,4] 30 [8,5] 29 [9,1] 19 [9,2] 11 [9,3] 5 [9,4] 12 [9,5] 12 [10,1] 21 [10,2] 26 [10,3] 3 [10,4] 4 [10,5] 17;
end;